unsat
(define-fun inv ((s (_ BitVec 4)) (t (_ BitVec 4))) (_ BitVec 4) #b0001)
0.02user 0.00system 0:00.04elapsed 54%CPU (0avgtext+0avgdata 26020maxresident)k
8inputs+8outputs (0major+1098minor)pagefaults 0swaps
